p wcnf 111 167 10
5 -1 0
5 -2 0
5 -3 0
5 -4 0
5 -5 0
5 -6 0
5 -7 0
5 -8 0
5 -9 0
5 -10 0
5 -11 0
5 -12 0
5 -13 0
5 -14 0
5 -15 0
5 -16 0
5 -17 0
5 -18 0
5 -19 0
5 -20 0
5 -21 0
5 -22 0
5 -23 0
5 -24 0
5 -25 0
5 -26 0
5 -27 0
5 -28 0
5 -29 0
5 -30 0
5 -31 0
5 -32 0
5 -33 0
5 -34 0
5 -35 0
5 -36 0
5 -37 0
5 -38 0
5 -39 0
5 -40 0
5 -41 0
5 -42 0
5 -43 0
5 -44 0
5 -45 0
5 -46 0
5 -47 0
5 -48 0
5 -49 0
5 -50 0
5 -51 0
5 -52 0
5 -53 0
5 -54 0
5 -55 0
5 -56 0
5 -57 0
5 -58 0
5 -59 0
5 -60 0
5 -61 0
5 -62 0
5 -63 0
5 -64 0
5 -65 0
5 -66 0
5 -67 0
5 -68 0
5 -69 0
5 -70 0
5 -71 0
5 -72 0
5 -73 0
5 -74 0
5 -75 0
5 -76 0
5 -77 0
5 -78 0
5 -79 0
5 -80 0
5 -81 0
5 -82 0
5 -83 0
5 -84 0
5 -85 0
5 -86 0
5 -87 0
5 -88 0
5 -89 0
5 -90 0
5 -91 0
5 -92 0
5 -93 0
5 -94 0
5 -95 0
5 -96 0
5 -97 0
5 -98 0
5 -99 0
5 -100 0
5 -101 0
5 -102 0
5 -103 0
5 -104 0
5 -105 0
5 -106 0
5 -107 0
5 -108 0
5 -109 0
5 -110 0
10 1 2 3 4 5 6 7 8 9 10 11 12 13 14 15 16 17 18 19 20 21 22 23 24 25 26 27 28 29 30 31 32 33 34 35 36 37 38 39 40 41 42 43 44 45 46 47 48 49 50 51 52 53 54 55 56 57 58 59 60 61 62 63 64 65 66 67 68 69 70 71 72 73 74 75 76 77 78 79 80 81 82 83 84 85 86 87 88 89 90 91 92 93 94 95 96 97 98 99 100 101 102 103 104 105 106 107 108 109 110 0
10 111 0
x 10 1 56 57 59 63 66 69 70 71 72 73 74 76 77 80 81 82 83 84 88 92 93 96 99 100 102 105 108 109 111 0
x 10 2 56 59 60 61 63 64 67 68 70 74 75 78 79 80 81 83 84 85 87 89 92 93 94 96 103 105 109 110 111 0
x 10 3 57 59 60 61 64 70 71 72 76 77 81 82 83 87 89 92 94 96 97 98 102 103 104 109 111 0
x 10 4 56 57 59 61 66 70 74 76 80 84 86 89 90 91 92 94 95 99 100 108 109 110 111 0
x 10 5 56 61 66 67 69 72 74 77 78 80 81 82 85 87 91 92 93 96 97 100 101 102 103 104 105 109 111 0
x 10 6 56 57 59 60 61 67 68 71 72 74 75 81 83 86 88 91 94 96 97 98 99 102 108 111 0
x 10 7 56 58 59 60 62 63 64 65 66 67 68 69 70 71 72 73 75 77 78 79 82 83 84 91 93 95 97 100 103 104 105 108 110 111 0
x 10 8 56 59 62 63 64 65 66 67 68 69 75 76 78 80 81 82 83 84 86 87 89 90 91 92 93 95 96 97 98 102 104 105 106 109 110 111 0
x 10 9 56 60 61 62 63 64 69 71 74 76 78 80 81 84 85 86 88 91 92 93 95 96 97 102 103 106 107 109 110 111 0
x 10 10 61 66 67 69 70 75 77 78 80 82 88 90 91 93 95 96 97 100 102 104 107 110 111 0
x 10 11 57 58 60 61 63 64 66 67 70 71 72 74 81 83 84 85 86 87 88 89 90 93 95 98 100 103 104 105 106 108 109 110 111 0
x 10 12 56 57 59 61 62 63 64 66 67 68 69 70 80 81 82 83 86 87 93 94 95 98 103 105 106 108 110 111 0
x 10 13 58 63 65 69 72 75 78 85 88 89 94 95 96 98 99 100 104 105 106 107 109 111 0
x 10 14 60 61 62 63 66 68 69 70 72 74 76 77 78 79 80 81 82 83 84 88 89 90 92 93 94 95 99 102 103 105 106 107 108 111 0
x 10 15 56 62 63 65 66 69 70 71 73 77 80 81 82 83 86 88 90 94 96 98 101 104 108 110 111 0
x 10 16 59 61 62 63 64 65 66 69 70 71 72 75 76 77 79 81 82 84 85 87 89 90 96 97 100 102 108 109 111 0
x 10 17 56 58 59 61 62 64 65 67 70 72 73 75 77 79 80 81 82 86 87 89 90 93 94 95 100 101 102 104 106 109 110 111 0
x 10 18 58 59 62 67 68 69 71 74 76 77 78 79 80 81 82 83 84 85 87 88 90 91 93 95 96 98 100 101 104 105 107 108 109 110 111 0
x 10 19 57 58 60 61 62 67 68 69 71 72 74 76 77 78 81 85 86 90 92 93 95 98 99 100 101 102 103 104 105 107 111 0
x 10 20 56 57 59 60 61 66 71 73 74 81 83 89 91 92 93 96 98 101 102 103 104 105 108 111 0
x 10 21 56 59 60 63 65 72 73 74 75 76 78 79 80 82 83 85 86 87 88 89 98 102 103 104 105 106 109 111 0
x 10 22 58 63 64 65 68 73 74 76 77 83 84 85 90 91 93 94 97 98 100 102 104 106 108 109 111 0
x 10 23 56 57 60 61 62 64 65 66 74 75 79 80 82 83 86 88 89 95 96 104 105 106 108 109 110 111 0
x 10 24 56 57 59 60 62 65 66 67 69 70 71 72 74 78 80 85 87 88 97 98 100 101 102 103 104 105 106 111 0
x 10 25 56 57 58 60 62 63 65 67 68 71 73 74 75 76 80 82 85 86 87 89 91 92 95 98 99 102 103 105 106 107 108 109 110 111 0
x 10 26 57 59 60 63 64 65 66 67 68 69 70 72 76 79 83 85 87 88 89 91 95 96 99 101 103 107 110 111 0
x 10 27 56 57 58 64 66 68 73 75 77 78 79 80 83 84 90 91 92 93 94 96 97 99 100 101 105 106 107 108 110 111 0
x 10 28 56 58 59 62 63 68 70 71 73 78 80 81 82 83 85 86 88 91 92 93 97 98 99 100 101 103 104 105 106 107 111 0
x 10 29 56 57 58 59 60 70 79 82 86 91 92 94 101 102 103 104 105 106 107 108 109 110 111 0
x 10 30 60 61 62 64 65 66 67 68 69 73 74 77 79 80 81 82 83 85 88 89 90 92 93 96 99 101 102 108 110 111 0
x 10 31 57 62 63 66 67 68 75 76 80 83 87 93 94 95 99 100 104 105 110 111 0
x 10 32 57 59 62 63 65 67 68 69 73 74 77 79 80 82 83 85 89 91 92 93 98 100 101 104 105 106 108 110 111 0
x 10 33 56 59 61 64 66 67 70 72 75 77 79 82 83 84 85 87 89 95 96 102 104 105 107 109 111 0
x 10 34 59 60 61 63 66 67 68 69 71 73 74 75 76 80 83 85 87 88 89 90 91 93 94 98 102 103 105 106 107 111 0
x 10 35 56 58 59 60 61 63 67 73 74 75 78 79 81 83 91 95 96 97 98 99 102 105 106 107 108 109 110 111 0
x 10 36 56 57 58 60 61 63 64 65 66 68 69 70 72 73 75 76 77 81 82 83 84 85 86 87 91 94 95 96 97 103 105 107 108 109 110 111 0
x 10 37 59 60 64 70 72 73 75 78 79 81 87 88 91 92 94 95 96 97 100 102 104 105 106 107 109 110 111 0
x 10 38 56 58 61 64 66 70 73 74 75 77 78 79 80 82 83 85 89 91 92 94 95 100 102 103 105 109 111 0
x 10 39 57 60 63 69 70 71 74 75 81 83 85 86 87 94 95 96 97 98 101 106 108 109 110 111 0
x 10 40 61 62 64 65 66 67 68 69 71 72 73 76 77 79 81 86 87 89 90 91 92 94 96 98 101 104 105 109 111 0
x 10 41 57 58 64 65 66 67 68 69 70 72 73 75 77 79 80 81 83 84 85 86 87 89 91 93 96 98 99 100 103 104 109 111 0
x 10 42 57 58 59 60 61 62 64 65 67 68 69 71 73 76 77 78 79 80 81 84 86 88 89 90 91 92 93 95 98 99 100 101 102 105 107 108 111 0
x 10 43 58 59 62 68 69 70 72 75 76 77 78 80 83 84 85 87 91 93 94 95 97 101 102 105 106 108 109 111 0
x 10 44 56 58 59 61 63 64 66 67 68 70 72 73 76 77 79 85 88 89 91 94 98 99 100 102 104 105 109 110 111 0
x 10 45 58 60 67 68 70 71 74 75 76 77 84 85 86 88 89 90 91 92 93 94 98 99 101 104 105 106 108 109 111 0
x 10 46 58 60 61 62 63 65 66 67 70 71 72 73 74 76 78 79 80 82 83 86 89 91 94 95 98 99 101 102 103 104 106 109 111 0
x 10 47 56 60 62 64 67 69 70 71 72 73 74 75 82 83 84 86 87 88 89 90 91 92 94 96 97 99 100 102 104 107 109 111 0
x 10 48 56 62 63 66 68 71 72 74 75 76 77 79 85 86 87 88 90 93 94 95 97 99 101 102 104 105 107 109 110 111 0
x 10 49 58 60 63 64 66 67 73 74 75 77 78 79 81 82 84 85 86 89 95 96 102 103 108 110 111 0
x 10 50 56 61 64 65 67 69 72 73 75 78 82 83 85 86 87 89 90 91 95 96 97 98 101 102 103 105 107 109 111 0
x 10 51 56 58 60 65 66 67 68 72 73 74 77 78 81 82 83 84 85 86 87 88 90 92 96 98 99 101 107 108 111 0
x 10 52 62 63 65 67 71 72 74 75 81 83 84 87 88 91 93 94 96 97 98 99 100 103 105 109 111 0
x 10 53 56 57 58 59 61 63 66 69 70 71 74 75 76 77 78 79 81 83 84 87 94 95 96 100 101 102 104 106 109 110 111 0
x 10 54 59 60 61 62 64 65 66 67 69 71 73 74 84 88 89 96 98 100 101 103 109 111 0
x 10 55 56 57 61 62 63 65 67 69 72 74 75 79 80 83 85 89 91 92 93 95 100 105 107 110 111 0
